[97mSOLVER - Computes the weighted upper irredundant/domination number.
Made in 2018-2020 by Daniel Severin.
[37m[33mStatistics:
  |V| = 30, |E| = 100 (density = 22.9885%).
  Initial bounds:  LB = 0, UB = 30.
Diameter of G: 3
[37m[97mClassic UB = w(V) - min { w(N[v] - {u}) : v in V, u in N[v] } = 26
[37mNew bounds:  LB = 14, UB = 24.
[31mSolution (card = 14, weight = 14):
  private of 4 is 4
  private of 7 is 7
  private of 5 is 5
  private of 22 is 22
  private of 25 is 25
  private of 18 is 18
  private of 23 is 23
  private of 1 is 0
  private of 19 is 19
  private of 21 is 21
  private of 20 is 20
  private of 28 is 28
  private of 24 is 24
  private of 26 is 26
[37m[96mTime elapsed for heuristic = 0 sec.
[37m[35m
Complement of the transformed graph:
  |V| = 230, |E| = 14707 (density = 55.8458%).
[37m[97mModel has 900 variables and 620 constraints.
[37mTried aggregator 1 time.
MIP Presolve eliminated 266 rows and 23 columns.
MIP Presolve modified 354 coefficients.
Reduced MIP has 354 rows, 207 columns, and 7274 nonzeros.
Reduced MIP has 207 binaries, 0 generals, 0 SOSs, and 0 indicators.
Presolve time = 0.01 sec. (17.45 ticks)
Tried aggregator 1 time.
Reduced MIP has 354 rows, 207 columns, and 7274 nonzeros.
Reduced MIP has 207 binaries, 0 generals, 0 SOSs, and 0 indicators.
Presolve time = 0.00 sec. (5.70 ticks)
Clique table members: 354.
MIP emphasis: balance optimality and feasibility.
MIP search method: dynamic search.
Parallel mode: none, using 1 thread.
Root relaxation solution time = 0.00 sec. (3.28 ticks)

        Nodes                                         Cuts/
   Node  Left     Objective  IInf  Best Integer    Best Bound    ItCnt     Gap

      0     0        cutoff                                        125         

Root node processing (before b&c):
  Real time             =    0.02 sec. (27.63 ticks)
Sequential b&c:
  Real time             =    0.00 sec. (0.00 ticks)
                          ------------
Total (root+branch&cut) =    0.02 sec. (27.63 ticks)
Number of nodes evaluated: 0
[92mInfeasible. Therefore, the solution given by the heuristic is optimal!
[37m[31mSolution (card = 14, weight = 14):
  private of 4 is 4
  private of 7 is 7
  private of 5 is 5
  private of 22 is 22
  private of 25 is 25
  private of 18 is 18
  private of 23 is 23
  private of 1 is 0
  private of 19 is 19
  private of 21 is 21
  private of 20 is 20
  private of 28 is 28
  private of 24 is 24
  private of 26 is 26
[37m[96mTime elapsed during optimization = 0.02 sec.
[37mCoq certificate written in certificate.v
Reading graph from output.dimacs...OK
Searching for a single maximum size clique...
  2/230 (max  1)  0.00 s  (0.00 s/round)
 11/230 (max  2)  0.00 s  (0.00 s/round)
 19/230 (max  3)  0.00 s  (0.00 s/round)
 28/230 (max  4)  0.00 s  (0.00 s/round)
 38/230 (max  5)  0.00 s  (0.00 s/round)
 48/230 (max  6)  0.00 s  (0.00 s/round)
 84/230 (max  7)  0.00 s  (0.00 s/round)
 85/230 (max  8)  0.00 s  (0.00 s/round)
 99/230 (max  9)  0.00 s  (0.00 s/round)
136/230 (max 10)  0.00 s  (0.00 s/round)
154/230 (max 11)  0.00 s  (0.00 s/round)
171/230 (max 12)  0.00 s  (0.00 s/round)
191/230 (max 13)  0.00 s  (0.00 s/round)
196/230 (max 14)  0.00 s  (0.00 s/round)
230/230 (max 14)  0.00 s  (0.00 s/round)
